(set-logic QF_S)
(declare-fun var_0xINPUT_124186 () String)
(assert (and (= (len var_0xINPUT_124186) 0) (= (len var_0xINPUT_124186) 0) (not (= var_0xINPUT_124186 "MEXdqBDMmF"))))
(check-sat var_0xINPUT_124186)